c FILE /home/rafael/Documents/HappySet/MIHS/inputs/happygen/output/graph_scale_free_k4_p0.5_v100_20241127_083834.txt
c SOURCE This is a scale-free graph formed for the happy graph colouring problem.
c DESCRIPTION It was generated using the problem generator of Rhyd Lewis
c
c GRAPH STATS
c Seed                             = -475637413
c Number of Nodes                  = 100
c Number of colours k              = 4
c Number of pre-assignments        = 50
c Number of links per new node     = 5
c Density                          = 0.0979798
c 
c The degrees of nodes 1 to 100, respectively, are as follows 
c [39, 35, 34, 29, 28, 27, 27, 26, 25, 25, 17, 15, 14, 14, 14, 13, 13, 13, 12, 12, 12, 11, 11, 11, 11, 11, 
c  11, 10, 10, 10, 10, 9, 9, 8, 8, 8, 8, 8, 8, 8, 8, 8, 8, 7, 7, 7, 7, 7, 7, 7, 7, 
c  7, 6, 6, 6, 6, 6, 6, 6, 6, 6, 6, 6, 6, 6, 6, 6, 6, 6, 6, 6, 5, 5, 5, 5, 5, 
c  5, 5, 5, 5, 5, 5, 5, 5, 5, 5, 5, 5, 5, 5, 5, 5, 5, 5, 5, 5, 5, 5, 5, 5] 
c  
p edge 100 485 4
e 1 2
e 1 3
e 1 4
e 1 5
e 1 8
e 1 9
e 1 10
e 1 11
e 1 13
e 1 14
e 1 16
e 1 17
e 1 19
e 1 25
e 1 26
e 1 29
e 1 30
e 1 31
e 1 34
e 1 35
e 1 39
e 1 41
e 1 42
e 1 49
e 1 50
e 1 51
e 1 52
e 1 57
e 1 58
e 1 59
e 1 60
e 1 67
e 1 72
e 1 78
e 1 83
e 1 90
e 1 92
e 1 95
e 1 96
e 2 3
e 2 4
e 2 5
e 2 6
e 2 7
e 2 8
e 2 9
e 2 10
e 2 13
e 2 15
e 2 16
e 2 17
e 2 18
e 2 21
e 2 22
e 2 23
e 2 25
e 2 26
e 2 27
e 2 28
e 2 29
e 2 40
e 2 45
e 2 54
e 2 61
e 2 63
e 2 67
e 2 69
e 2 74
e 2 83
e 2 85
e 2 86
e 2 88
e 2 97
e 3 4
e 3 6
e 3 7
e 3 8
e 3 10
e 3 12
e 3 13
e 3 14
e 3 15
e 3 21
e 3 27
e 3 33
e 3 36
e 3 39
e 3 40
e 3 44
e 3 46
e 3 52
e 3 54
e 3 56
e 3 59
e 3 60
e 3 62
e 3 64
e 3 66
e 3 67
e 3 74
e 3 81
e 3 88
e 3 92
e 3 96
e 3 98
e 4 5
e 4 6
e 4 7
e 4 8
e 4 9
e 4 15
e 4 20
e 4 25
e 4 28
e 4 31
e 4 32
e 4 35
e 4 37
e 4 38
e 4 50
e 4 53
e 4 58
e 4 59
e 4 64
e 4 68
e 4 80
e 4 81
e 4 93
e 4 95
e 4 99
e 4 100
e 5 6
e 5 7
e 5 8
e 5 9
e 5 11
e 5 12
e 5 13
e 5 14
e 5 18
e 5 19
e 5 23
e 5 33
e 5 34
e 5 40
e 5 45
e 5 51
e 5 53
e 5 55
e 5 57
e 5 62
e 5 75
e 5 77
e 5 89
e 5 95
e 5 99
e 6 8
e 6 9
e 6 10
e 6 13
e 6 14
e 6 16
e 6 17
e 6 34
e 6 35
e 6 36
e 6 37
e 6 41
e 6 44
e 6 48
e 6 49
e 6 53
e 6 59
e 6 65
e 6 66
e 6 78
e 6 86
e 6 87
e 6 97
e 7 8
e 7 11
e 7 12
e 7 15
e 7 17
e 7 18
e 7 19
e 7 22
e 7 24
e 7 29
e 7 32
e 7 34
e 7 35
e 7 46
e 7 48
e 7 49
e 7 56
e 7 57
e 7 63
e 7 68
e 7 75
e 7 81
e 7 99
e 8 9
e 8 12
e 8 14
e 8 15
e 8 24
e 8 32
e 8 34
e 8 37
e 8 38
e 8 43
e 8 44
e 8 50
e 8 53
e 8 64
e 8 65
e 8 73
e 8 76
e 8 88
e 8 95
e 9 10
e 9 11
e 9 16
e 9 19
e 9 20
e 9 25
e 9 30
e 9 38
e 9 55
e 9 57
e 9 62
e 9 63
e 9 72
e 9 75
e 9 80
e 9 83
e 9 95
e 9 96
e 9 98
e 10 12
e 10 16
e 10 24
e 10 26
e 10 30
e 10 41
e 10 44
e 10 47
e 10 50
e 10 54
e 10 58
e 10 65
e 10 70
e 10 72
e 10 75
e 10 78
e 10 82
e 10 87
e 10 89
e 10 94
e 11 13
e 11 17
e 11 18
e 11 21
e 11 22
e 11 36
e 11 43
e 11 44
e 11 46
e 11 47
e 11 56
e 11 72
e 11 89
e 12 23
e 12 24
e 12 29
e 12 36
e 12 42
e 12 60
e 12 74
e 12 77
e 12 85
e 12 86
e 13 20
e 13 21
e 13 42
e 13 46
e 13 63
e 13 82
e 13 87
e 13 92
e 14 18
e 14 21
e 14 35
e 14 45
e 14 50
e 14 53
e 14 65
e 14 66
e 14 69
e 15 22
e 15 39
e 15 54
e 15 55
e 15 57
e 15 58
e 15 67
e 15 69
e 15 86
e 16 25
e 16 36
e 16 38
e 16 40
e 16 52
e 16 70
e 16 83
e 16 86
e 17 23
e 17 28
e 17 31
e 17 32
e 17 41
e 17 71
e 17 80
e 17 98
e 18 30
e 18 37
e 18 38
e 18 41
e 18 55
e 18 84
e 18 91
e 18 94
e 19 27
e 19 30
e 19 33
e 19 35
e 19 61
e 19 73
e 19 78
e 19 81
e 20 23
e 20 28
e 20 33
e 20 36
e 20 45
e 20 66
e 20 71
e 20 76
e 20 89
e 21 52
e 21 61
e 21 62
e 21 80
e 21 90
e 21 91
e 21 98
e 22 26
e 22 28
e 22 29
e 22 47
e 22 48
e 22 54
e 22 74
e 23 35
e 23 37
e 23 46
e 23 51
e 23 73
e 23 77
e 24 27
e 24 35
e 24 39
e 24 40
e 24 43
e 24 73
e 24 91
e 25 48
e 25 56
e 25 59
e 25 82
e 25 90
e 25 93
e 26 34
e 26 39
e 26 76
e 26 79
e 26 84
e 26 90
e 26 92
e 27 28
e 27 48
e 27 63
e 27 68
e 27 70
e 27 78
e 27 79
e 28 43
e 28 45
e 28 52
e 28 72
e 29 31
e 29 61
e 29 70
e 29 85
e 29 100
e 30 49
e 30 71
e 30 73
e 30 77
e 30 82
e 31 51
e 31 65
e 31 84
e 31 89
e 31 93
e 31 94
e 32 37
e 32 47
e 32 66
e 32 68
e 32 96
e 33 38
e 33 47
e 33 74
e 33 82
e 33 93
e 34 54
e 34 100
e 36 43
e 36 97
e 37 61
e 37 88
e 38 55
e 38 84
e 39 42
e 39 64
e 39 76
e 40 60
e 40 77
e 40 97
e 41 60
e 41 79
e 41 97
e 42 57
e 42 68
e 42 69
e 42 96
e 43 69
e 43 88
e 43 94
e 44 56
e 44 58
e 45 85
e 45 98
e 46 62
e 46 84
e 47 51
e 47 94
e 48 85
e 48 87
e 49 56
e 49 64
e 49 87
e 50 51
e 50 91
e 51 91
e 52 79
e 52 99
e 53 100
e 55 80
e 58 83
e 59 75
e 60 76
e 61 81
e 62 79
e 63 99
e 64 71
e 65 71
e 66 67
e 67 70
e 68 100
e 69 90
e 70 93
e 71 92
n 1 2
n 14 2
n 17 2
n 24 3
n 25 2
n 27 3
n 29 2
n 30 2
n 32 2
n 33 4
n 36 1
n 37 2
n 42 2
n 45 2
n 46 1
n 50 2
n 51 2
n 54 4
n 55 4
n 56 2
n 57 2
n 58 2
n 59 2
n 60 2
n 62 1
n 63 3
n 66 2
n 67 2
n 72 2
n 74 4
n 75 2
n 76 2
n 77 2
n 81 3
n 83 2
n 84 1
n 85 2
n 86 4
n 87 4
n 88 2
n 89 2
n 90 2
n 92 2
n 94 4
n 95 2
n 96 2
n 97 1
n 98 2
n 99 3
n 100 2
